c generated by ere2max.py
c max 1 0
c max 2 0
c max 3 0
c max 4 0
c max 5 0
c max 6 0
c max 7 0
c max 8 0
c max 9 0
c max 10 0
c max 11 0
c max 12 0
c max 13 0
c max 14 0
c max 15 0
c max 16 0
c max 17 0
c max 18 0
c max 19 0
c max 20 0
c max 21 0
c max 22 0
c max 23 0
c max 24 0
c max 25 0
c max 26 0
c max 27 0
c max 28 0
c max 29 0
c max 30 0
c max 31 0
c max 32 0
c max 33 0
c max 34 0
c max 35 0
c max 36 0
c ind 331 332 333 0
p cnf 333 883
39 9 19 0
-39 -9 0
-39 -19 0
40 6 8 0
-40 -6 0
-40 -8 0
41 11 13 0
-41 -11 0
-41 -13 0
42 15 17 0
-42 -15 0
-42 -17 0
43 20 22 0
-43 -20 0
-43 -22 0
44 24 26 0
-44 -24 0
-44 -26 0
45 -30 -35 0
-45 30 0
-45 35 0
46 -3 -45 0
-46 3 0
-46 45 0
47 44 -46 0
-47 -44 0
-47 46 0
48 43 -47 0
-48 -43 0
-48 47 0
49 42 -48 0
-49 -42 0
-49 48 0
50 41 -49 0
-50 -41 0
-50 49 0
51 40 -50 0
-51 -40 0
-51 50 0
52 39 -51 0
-52 -39 0
-52 51 0
53 -28 -35 0
-53 28 0
-53 35 0
54 -3 -53 0
-54 3 0
-54 53 0
55 44 -54 0
-55 -44 0
-55 54 0
56 43 -55 0
-56 -43 0
-56 55 0
57 42 -56 0
-57 -42 0
-57 56 0
58 41 -57 0
-58 -41 0
-58 57 0
59 40 -58 0
-59 -40 0
-59 58 0
60 39 -59 0
-60 -39 0
-60 59 0
61 -30 -32 0
-61 30 0
-61 32 0
62 -3 -61 0
-62 3 0
-62 61 0
63 44 -62 0
-63 -44 0
-63 62 0
64 43 -63 0
-64 -43 0
-64 63 0
65 42 -64 0
-65 -42 0
-65 64 0
66 41 -65 0
-66 -41 0
-66 65 0
67 40 -66 0
-67 -40 0
-67 66 0
68 39 -67 0
-68 -39 0
-68 67 0
69 -1 -45 0
-69 1 0
-69 45 0
70 44 -69 0
-70 -44 0
-70 69 0
71 43 -70 0
-71 -43 0
-71 70 0
72 42 -71 0
-72 -42 0
-72 71 0
73 41 -72 0
-73 -41 0
-73 72 0
74 40 -73 0
-74 -40 0
-74 73 0
75 39 -74 0
-75 -39 0
-75 74 0
76 -1 -53 0
-76 1 0
-76 53 0
77 44 -76 0
-77 -44 0
-77 76 0
78 43 -77 0
-78 -43 0
-78 77 0
79 42 -78 0
-79 -42 0
-79 78 0
80 41 -79 0
-80 -41 0
-80 79 0
81 40 -80 0
-81 -40 0
-81 80 0
82 39 -81 0
-82 -39 0
-82 81 0
83 -28 -32 0
-83 28 0
-83 32 0
84 -1 -83 0
-84 1 0
-84 83 0
85 44 -84 0
-85 -44 0
-85 84 0
86 43 -85 0
-86 -43 0
-86 85 0
87 42 -86 0
-87 -42 0
-87 86 0
88 41 -87 0
-88 -41 0
-88 87 0
89 40 -88 0
-89 -40 0
-89 88 0
90 39 -89 0
-90 -39 0
-90 89 0
91 -1 -61 0
-91 1 0
-91 61 0
92 44 -91 0
-92 -44 0
-92 91 0
93 43 -92 0
-93 -43 0
-93 92 0
94 42 -93 0
-94 -42 0
-94 93 0
95 41 -94 0
-95 -41 0
-95 94 0
96 40 -95 0
-96 -40 0
-96 95 0
97 39 -96 0
-97 -39 0
-97 96 0
98 90 97 0
-98 -90 0
-98 -97 0
99 82 -98 0
-99 -82 0
-99 98 0
100 75 -99 0
-100 -75 0
-100 99 0
101 -3 -83 0
-101 3 0
-101 83 0
102 44 -101 0
-102 -44 0
-102 101 0
103 43 -102 0
-103 -43 0
-103 102 0
104 42 -103 0
-104 -42 0
-104 103 0
105 41 -104 0
-105 -41 0
-105 104 0
106 40 -105 0
-106 -40 0
-106 105 0
107 39 -106 0
-107 -39 0
-107 106 0
108 -100 107 0
-108 100 0
-108 -107 0
109 68 -108 0
-109 -68 0
-109 108 0
110 60 -109 0
-110 -60 0
-110 109 0
111 52 -110 0
-111 -52 0
-111 110 0
112 -32 111 0
-112 32 0
-112 -111 0
113 35 112 0
-113 -35 0
-113 -112 0
114 3 -100 0
-114 -3 0
-114 100 0
115 4 -114 0
-115 -4 0
-115 114 0
116 36 -113 0
-116 -36 0
-116 113 0
117 -28 111 0
-117 28 0
-117 -111 0
118 30 117 0
-118 -30 0
-118 -117 0
119 31 -118 0
-119 -31 0
-119 118 0
120 26 27 0
-120 -26 0
-120 -27 0
121 -111 -120 0
-121 111 0
-121 120 0
122 22 23 0
-122 -22 0
-122 -23 0
123 -111 -122 0
-123 111 0
-123 122 0
124 17 18 0
-124 -17 0
-124 -18 0
125 -111 -124 0
-125 111 0
-125 124 0
126 13 14 0
-126 -13 0
-126 -14 0
127 -111 -126 0
-127 111 0
-127 126 0
128 19 33 0
-128 -19 0
-128 -33 0
129 -111 -128 0
-129 111 0
-129 128 0
130 8 10 0
-130 -8 0
-130 -10 0
131 -111 -130 0
-131 111 0
-131 130 0
132 129 131 0
-132 -129 0
-132 -131 0
133 127 -132 0
-133 -127 0
-133 132 0
134 125 -133 0
-134 -125 0
-134 133 0
135 123 -134 0
-135 -123 0
-135 134 0
136 121 -135 0
-136 -121 0
-136 135 0
137 119 -136 0
-137 -119 0
-137 136 0
138 116 -137 0
-138 -116 0
-138 137 0
139 115 -138 0
-139 -115 0
-139 138 0
140 5 -114 0
-140 -5 0
-140 114 0
141 139 -140 0
-141 -139 0
-141 140 0
142 8 12 0
-142 -8 0
-142 -12 0
143 -111 -142 0
-143 111 0
-143 142 0
144 139 -143 0
-144 -139 0
-144 143 0
145 13 16 0
-145 -13 0
-145 -16 0
146 -111 -145 0
-146 111 0
-146 145 0
147 139 -146 0
-147 -139 0
-147 146 0
148 17 21 0
-148 -17 0
-148 -21 0
149 -111 -148 0
-149 111 0
-149 148 0
150 139 -149 0
-150 -139 0
-150 149 0
151 22 25 0
-151 -22 0
-151 -25 0
152 -111 -151 0
-152 111 0
-152 151 0
153 139 -152 0
-153 -139 0
-153 152 0
154 26 29 0
-154 -26 0
-154 -29 0
155 -111 -154 0
-155 111 0
-155 154 0
156 139 -155 0
-156 -139 0
-156 155 0
157 34 -118 0
-157 -34 0
-157 118 0
158 139 -157 0
-158 -139 0
-158 157 0
159 2 -113 0
-159 -2 0
-159 113 0
160 139 -159 0
-160 -139 0
-160 159 0
161 -19 160 0
-161 19 0
-161 -160 0
162 158 -161 0
-162 -158 0
-162 161 0
163 156 -162 0
-163 -156 0
-163 162 0
164 153 -163 0
-164 -153 0
-164 163 0
165 150 -164 0
-165 -150 0
-165 164 0
166 147 -165 0
-166 -147 0
-166 165 0
167 144 -166 0
-167 -144 0
-167 166 0
168 141 -167 0
-168 -141 0
-168 167 0
169 -7 160 0
-169 7 0
-169 -160 0
170 158 -169 0
-170 -158 0
-170 169 0
171 156 -170 0
-171 -156 0
-171 170 0
172 153 -171 0
-172 -153 0
-172 171 0
173 150 -172 0
-173 -150 0
-173 172 0
174 147 -173 0
-174 -147 0
-174 173 0
175 144 -174 0
-175 -144 0
-175 174 0
176 141 -175 0
-176 -141 0
-176 175 0
177 168 176 0
-177 -168 0
-177 -176 0
178 -111 -177 0
-178 111 0
-178 177 0
179 139 -178 0
-179 -139 0
-179 178 0
180 -16 179 0
-180 16 0
-180 -179 0
181 -14 -139 0
-181 14 0
-181 139 0
182 -11 111 0
-182 11 0
-182 -111 0
183 13 182 0
-183 -13 0
-183 -182 0
184 181 -183 0
-184 -181 0
-184 183 0
185 180 -184 0
-185 -180 0
-185 184 0
186 -34 179 0
-186 34 0
-186 -179 0
187 -31 -139 0
-187 31 0
-187 139 0
188 -118 187 0
-188 118 0
-188 -187 0
189 186 -188 0
-189 -186 0
-189 188 0
190 -2 -36 0
-190 2 0
-190 36 0
191 189 -190 0
-191 -189 0
-191 190 0
192 185 -191 0
-192 -185 0
-192 191 0
193 113 -192 0
-193 -113 0
-193 192 0
194 -12 179 0
-194 12 0
-194 -179 0
195 -10 -139 0
-195 10 0
-195 139 0
196 -6 111 0
-196 6 0
-196 -111 0
197 8 196 0
-197 -8 0
-197 -196 0
198 195 -197 0
-198 -195 0
-198 197 0
199 194 -198 0
-199 -194 0
-199 198 0
200 -25 179 0
-200 25 0
-200 -179 0
201 -23 -139 0
-201 23 0
-201 139 0
202 -20 111 0
-202 20 0
-202 -111 0
203 22 202 0
-203 -22 0
-203 -202 0
204 201 -203 0
-204 -201 0
-204 203 0
205 200 -204 0
-205 -200 0
-205 204 0
206 -21 179 0
-206 21 0
-206 -179 0
207 -18 -139 0
-207 18 0
-207 139 0
208 -15 111 0
-208 15 0
-208 -111 0
209 17 208 0
-209 -17 0
-209 -208 0
210 207 -209 0
-210 -207 0
-210 209 0
211 206 -210 0
-211 -206 0
-211 210 0
212 205 211 0
-212 -205 0
-212 -211 0
213 185 -212 0
-213 -185 0
-213 212 0
214 199 -213 0
-214 -199 0
-214 213 0
215 27 29 0
-215 -27 0
-215 -29 0
216 214 -215 0
-216 -214 0
-216 215 0
217 -44 -216 0
-217 44 0
-217 216 0
218 -199 -217 0
-218 199 0
-218 217 0
219 185 211 0
-219 -185 0
-219 -211 0
220 -218 219 0
-220 218 0
-220 -219 0
221 193 -220 0
-221 -193 0
-221 220 0
222 -37 120 0
-222 37 0
-222 -120 0
223 37 -120 0
-223 -37 0
-223 120 0
224 222 223 0
-224 -222 0
-224 -223 0
225 -111 224 0
-225 111 0
-225 -224 0
226 -135 225 0
-226 135 0
-226 -225 0
227 119 -226 0
-227 -119 0
-227 226 0
228 116 -227 0
-228 -116 0
-228 227 0
229 115 -228 0
-229 -115 0
-229 228 0
230 -140 229 0
-230 140 0
-230 -229 0
231 -143 229 0
-231 143 0
-231 -229 0
232 -146 229 0
-232 146 0
-232 -229 0
233 -149 229 0
-233 149 0
-233 -229 0
234 -152 229 0
-234 152 0
-234 -229 0
235 -155 229 0
-235 155 0
-235 -229 0
236 -157 229 0
-236 157 0
-236 -229 0
237 -159 229 0
-237 159 0
-237 -229 0
238 -19 237 0
-238 19 0
-238 -237 0
239 236 -238 0
-239 -236 0
-239 238 0
240 235 -239 0
-240 -235 0
-240 239 0
241 234 -240 0
-241 -234 0
-241 240 0
242 233 -241 0
-242 -233 0
-242 241 0
243 232 -242 0
-243 -232 0
-243 242 0
244 231 -243 0
-244 -231 0
-244 243 0
245 230 -244 0
-245 -230 0
-245 244 0
246 -7 237 0
-246 7 0
-246 -237 0
247 236 -246 0
-247 -236 0
-247 246 0
248 235 -247 0
-248 -235 0
-248 247 0
249 234 -248 0
-249 -234 0
-249 248 0
250 233 -249 0
-250 -233 0
-250 249 0
251 232 -250 0
-251 -232 0
-251 250 0
252 231 -251 0
-252 -231 0
-252 251 0
253 230 -252 0
-253 -230 0
-253 252 0
254 245 253 0
-254 -245 0
-254 -253 0
255 -111 -254 0
-255 111 0
-255 254 0
256 229 -255 0
-256 -229 0
-256 255 0
257 -16 256 0
-257 16 0
-257 -256 0
258 -14 -229 0
-258 14 0
-258 229 0
259 -183 258 0
-259 183 0
-259 -258 0
260 257 -259 0
-260 -257 0
-260 259 0
261 -34 256 0
-261 34 0
-261 -256 0
262 -31 -229 0
-262 31 0
-262 229 0
263 -118 262 0
-263 118 0
-263 -262 0
264 261 -263 0
-264 -261 0
-264 263 0
265 -190 264 0
-265 190 0
-265 -264 0
266 260 -265 0
-266 -260 0
-266 265 0
267 113 -266 0
-267 -113 0
-267 266 0
268 -12 256 0
-268 12 0
-268 -256 0
269 -10 -229 0
-269 10 0
-269 229 0
270 -197 269 0
-270 197 0
-270 -269 0
271 268 -270 0
-271 -268 0
-271 270 0
272 -25 256 0
-272 25 0
-272 -256 0
273 -23 -229 0
-273 23 0
-273 229 0
274 -203 273 0
-274 203 0
-274 -273 0
275 272 -274 0
-275 -272 0
-275 274 0
276 -21 256 0
-276 21 0
-276 -256 0
277 -18 -229 0
-277 18 0
-277 229 0
278 -209 277 0
-278 209 0
-278 -277 0
279 276 -278 0
-279 -276 0
-279 278 0
280 275 279 0
-280 -275 0
-280 -279 0
281 260 -280 0
-281 -260 0
-281 280 0
282 271 -281 0
-282 -271 0
-282 281 0
283 -215 282 0
-283 215 0
-283 -282 0
284 -44 -283 0
-284 44 0
-284 283 0
285 -271 -284 0
-285 271 0
-285 284 0
286 260 279 0
-286 -260 0
-286 -279 0
287 -285 286 0
-287 285 0
-287 -286 0
288 267 -287 0
-288 -267 0
-288 287 0
289 221 -288 0
-289 -221 0
-289 288 0
290 -221 288 0
-290 221 0
-290 -288 0
291 289 290 0
-291 -289 0
-291 -290 0
292 -189 214 0
-292 189 0
-292 -214 0
293 -185 -218 0
-293 185 0
-293 218 0
294 -292 -293 0
-294 292 0
-294 293 0
295 -264 282 0
-295 264 0
-295 -282 0
296 -260 -285 0
-296 260 0
-296 285 0
297 -295 -296 0
-297 295 0
-297 296 0
298 294 -297 0
-298 -294 0
-298 297 0
299 -294 297 0
-299 294 0
-299 -297 0
300 298 299 0
-300 -298 0
-300 -299 0
301 -214 282 0
-301 214 0
-301 -282 0
302 214 -282 0
-302 -214 0
-302 282 0
303 301 302 0
-303 -301 0
-303 -302 0
304 114 -214 0
-304 -114 0
-304 214 0
305 19 304 0
-305 -19 0
-305 -304 0
306 -9 111 0
-306 9 0
-306 -111 0
307 -33 -139 0
-307 33 0
-307 139 0
308 306 307 0
-308 -306 0
-308 -307 0
309 176 -308 0
-309 -176 0
-309 308 0
310 -305 -309 0
-310 305 0
-310 309 0
311 114 -282 0
-311 -114 0
-311 282 0
312 19 311 0
-312 -19 0
-312 -311 0
313 -33 -229 0
-313 33 0
-313 229 0
314 306 313 0
-314 -306 0
-314 -313 0
315 253 -314 0
-315 -253 0
-315 314 0
316 -312 -315 0
-316 312 0
-316 315 0
317 310 -316 0
-317 -310 0
-317 316 0
318 -310 316 0
-318 310 0
-318 -316 0
319 317 318 0
-319 -317 0
-319 -318 0
320 -139 229 0
-320 139 0
-320 -229 0
321 139 -229 0
-321 -139 0
-321 229 0
322 320 321 0
-322 -320 0
-322 -321 0
323 179 -256 0
-323 -179 0
-323 256 0
324 -179 256 0
-324 179 0
-324 -256 0
325 323 324 0
-325 -323 0
-325 -324 0
326 -322 -325 0
-326 322 0
-326 325 0
327 -319 -326 0
-327 319 0
-327 326 0
328 -303 -327 0
-328 303 0
-328 327 0
329 -300 -328 0
-329 300 0
-329 328 0
330 -291 -329 0
-330 291 0
-330 329 0
38 330 0
-38 -330 0
38 0
-331 -332 -333 37 0
331 -37 0
332 -37 0
333 -37 0
